PE-7_o_pbcn                             
   1.00000000000000     
     4.8888510018800773    0.0000000000000000   -0.0000000000000000
     0.0000000000000000    5.6987535975800743    0.0000000000000000
     0.0000000000000000    0.0000000000000000    5.1932121567567640
   Hf   O 
     4     8
Direct
 -0.0000000000000000  0.4282576693788179  0.5000000000000000
  0.5000000000000000  0.5717423306211822 -0.0000000000000000
 -0.0000000000000000  0.0717423306211822 -0.0000000000000000
  0.5000000000000000  0.9282576693788178  0.5000000000000000
  0.7255691070721780  0.6445708171908622  0.6729323828456871
  0.2255690770721684  0.3554291828091375  0.8270676171543129
  0.2744309229278244  0.6445708171908622  0.3270676171543128
  0.2744309229278244  0.8554291828091378  0.8270676171543129
  0.7744308929278220  0.3554291828091375  0.1729323828456871
  0.7255691070721780  0.8554291828091378  0.1729323828456871
  0.2255690770721684  0.1445708171908624  0.3270676171543128
  0.7744308929278220  0.1445708171908624  0.6729323828456871
 
  0.00000000E+00  0.00000000E+00  0.00000000E+00
  0.00000000E+00  0.00000000E+00  0.00000000E+00
  0.00000000E+00  0.00000000E+00  0.00000000E+00
  0.00000000E+00  0.00000000E+00  0.00000000E+00
  0.00000000E+00  0.00000000E+00  0.00000000E+00
  0.00000000E+00  0.00000000E+00  0.00000000E+00
  0.00000000E+00  0.00000000E+00  0.00000000E+00
  0.00000000E+00  0.00000000E+00  0.00000000E+00
  0.00000000E+00  0.00000000E+00  0.00000000E+00
  0.00000000E+00  0.00000000E+00  0.00000000E+00
  0.00000000E+00  0.00000000E+00  0.00000000E+00
  0.00000000E+00  0.00000000E+00  0.00000000E+00
